\ LP format - for model browsing. Use MPS format to capture full model detail.
Minimize
  - 0.1666666666666667 c[0] - 0.5 c[1] - 0.5 c[2] - c[3] + Constant
Subject To
 R0: 3 c[0] + 7 c[1] + 9 c[2] + 16 c[3] <= 20
Bounds
 Constant = 1
Generals
 c[0] c[1] c[2] c[3]
End
